NAME : instances/clustered-mixed-tsp/instance-72.tsp
COMMENT : No Comment
TYPE : TSP
DIMENSION: 52
EDGE_WEIGHT_TYPE : EUC_2D
NODE_COORD_SECTION
1 284 677 
2 554 584 
3 98 19 
4 566 632 
5 789 192 
6 252 957 
7 330 915 
8 767 753 
9 566 78 
10 607 280 
11 494 -96 
12 132 867 
13 596 102 
14 320 809 
15 320 791 
16 755 789 
17 368 689 
18 899 879 
19 655 322 
20 350 -18 
21 493 346 
22 698 796 
23 493 262 
24 827 807 
25 500 839 
26 851 729 
27 494 704 
28 308 851 
29 608 542 
30 404 530 
31 827 675 
32 500 560 
33 529 328 
34 488 216 
35 258 1011 
36 278 717 
37 392 108 
38 114 921 
39 620 300 
40 881 843 
41 306 1095 
42 410 743 
43 506 845 
44 737 747 
45 589 226 
46 148 161 
47 578 886 
48 314 689 
49 488 635 
50 398 -30 
51 717 234 
52 488 815 
EOF
